20	100	100	100
39	100	100
24	100	100
49	100	100
23	100	100
28	100	100
25	100	100
40	100	100
41	100	100
7	100	100
28	100	100
12	100	100
26	100	100
39	100	100
18	100	100
3	100	100
27	100	100
9	100	100
2	100	100
41	100	100
41	100	100
